p cnf 264 1347
223 224 0
-223 -224 0
-1 -2 0
-1 -3 0
-2 -3 0
-4 -5 0
-4 -6 0
-5 -6 0
-223 1 2 3 0
-224 4 5 6 0
223 -1 0
223 -2 0
223 -3 0
224 -4 0
224 -5 0
224 -6 0
-1 37 0
-1 7 0
-2 38 0
-2 8 0
-3 39 0
-3 9 0
-4 40 0
-4 10 0
-5 41 0
-5 11 0
-6 42 0
-6 12 0
225 226 0
-225 -226 0
-7 -8 0
-7 -9 0
-8 -9 0
-10 -11 0
-10 -12 0
-11 -12 0
-225 7 8 9 0
-226 10 11 12 0
225 -7 0
225 -8 0
225 -9 0
226 -10 0
226 -11 0
226 -12 0
-7 1 13 0
-7 1 43 0
-7 13 43 0
-8 2 14 0
-8 2 44 0
-8 14 44 0
-9 3 15 0
-9 3 45 0
-9 15 45 0
-10 4 16 0
-10 4 46 0
-10 16 46 0
-11 5 17 0
-11 5 47 0
-11 17 47 0
-12 6 18 0
-12 6 48 0
-12 18 48 0
-7 -1 -13 -43 0
-8 -2 -14 -44 0
-9 -3 -15 -45 0
-10 -4 -16 -46 0
-11 -5 -17 -47 0
-12 -6 -18 -48 0
227 228 0
-227 -228 0
-13 -14 0
-13 -15 0
-14 -15 0
-16 -17 0
-16 -18 0
-17 -18 0
-227 13 14 15 0
-228 16 17 18 0
227 -13 0
227 -14 0
227 -15 0
228 -16 0
228 -17 0
228 -18 0
-13 7 19 0
-13 7 49 0
-13 19 49 0
-14 8 20 0
-14 8 50 0
-14 20 50 0
-15 9 21 0
-15 9 51 0
-15 21 51 0
-16 10 22 0
-16 10 52 0
-16 22 52 0
-17 11 23 0
-17 11 53 0
-17 23 53 0
-18 12 24 0
-18 12 54 0
-18 24 54 0
-13 -7 -19 -49 0
-14 -8 -20 -50 0
-15 -9 -21 -51 0
-16 -10 -22 -52 0
-17 -11 -23 -53 0
-18 -12 -24 -54 0
229 230 0
-229 -230 0
-19 -20 0
-19 -21 0
-20 -21 0
-22 -23 0
-22 -24 0
-23 -24 0
-229 19 20 21 0
-230 22 23 24 0
229 -19 0
229 -20 0
229 -21 0
230 -22 0
230 -23 0
230 -24 0
-19 13 25 0
-19 13 55 0
-19 25 55 0
-20 14 26 0
-20 14 56 0
-20 26 56 0
-21 15 27 0
-21 15 57 0
-21 27 57 0
-22 16 28 0
-22 16 58 0
-22 28 58 0
-23 17 29 0
-23 17 59 0
-23 29 59 0
-24 18 30 0
-24 18 60 0
-24 30 60 0
-19 -13 -25 -55 0
-20 -14 -26 -56 0
-21 -15 -27 -57 0
-22 -16 -28 -58 0
-23 -17 -29 -59 0
-24 -18 -30 -60 0
-25 0
-26 0
-28 0
-29 0
-30 0
27 0
21 33 63 0
-21 -33 0
-21 -63 0
-33 -63 0
233 234 0
-233 -234 0
-31 -32 0
-31 -33 0
-32 -33 0
-34 -35 0
-34 -36 0
-35 -36 0
-233 31 32 33 0
-234 34 35 36 0
233 -31 0
233 -32 0
233 -33 0
234 -34 0
234 -35 0
234 -36 0
-31 67 0
-31 25 0
-32 68 0
-32 26 0
-33 69 0
-33 27 0
-34 70 0
-34 28 0
-35 71 0
-35 29 0
-36 72 0
-36 30 0
-37 0
-39 0
-40 0
-41 0
-42 0
38 0
74 44 2 0
-74 -44 0
-74 -2 0
-44 -2 0
-43 0
-44 0
-45 0
-46 0
-47 0
48 0
84 54 12 42 0
-84 -54 0
-84 -12 0
-84 -42 0
-54 -12 0
-54 -42 0
-12 -42 0
239 240 0
-239 -240 0
-49 -50 0
-49 -51 0
-50 -51 0
-52 -53 0
-52 -54 0
-53 -54 0
-239 49 50 51 0
-240 52 53 54 0
239 -49 0
239 -50 0
239 -51 0
240 -52 0
240 -53 0
240 -54 0
-49 85 55 13 0
-49 85 55 43 0
-49 85 13 43 0
-49 55 13 43 0
-50 86 56 14 0
-50 86 56 44 0
-50 86 14 44 0
-50 56 14 44 0
-51 87 57 15 0
-51 87 57 45 0
-51 87 15 45 0
-51 57 15 45 0
-52 88 58 16 0
-52 88 58 46 0
-52 88 16 46 0
-52 58 16 46 0
-53 89 59 17 0
-53 89 59 47 0
-53 89 17 47 0
-53 59 17 47 0
-54 90 60 18 0
-54 90 60 48 0
-54 90 18 48 0
-54 60 18 48 0
-49 -85 -55 -13 0
-49 -85 -55 -43 0
-49 -85 -13 -43 0
-49 -55 -13 -43 0
-50 -86 -56 -14 0
-50 -86 -56 -44 0
-50 -86 -14 -44 0
-50 -56 -14 -44 0
-51 -87 -57 -15 0
-51 -87 -57 -45 0
-51 -87 -15 -45 0
-51 -57 -15 -45 0
-52 -88 -58 -16 0
-52 -88 -58 -46 0
-52 -88 -16 -46 0
-52 -58 -16 -46 0
-53 -89 -59 -17 0
-53 -89 -59 -47 0
-53 -89 -17 -47 0
-53 -59 -17 -47 0
-54 -90 -60 -18 0
-54 -90 -60 -48 0
-54 -90 -18 -48 0
-54 -60 -18 -48 0
241 242 0
-241 -242 0
-55 -56 0
-55 -57 0
-56 -57 0
-58 -59 0
-58 -60 0
-59 -60 0
-241 55 56 57 0
-242 58 59 60 0
241 -55 0
241 -56 0
241 -57 0
242 -58 0
242 -59 0
242 -60 0
-55 91 61 19 0
-55 91 61 49 0
-55 91 19 49 0
-55 61 19 49 0
-56 92 62 20 0
-56 92 62 50 0
-56 92 20 50 0
-56 62 20 50 0
-57 93 63 21 0
-57 93 63 51 0
-57 93 21 51 0
-57 63 21 51 0
-58 94 64 22 0
-58 94 64 52 0
-58 94 22 52 0
-58 64 22 52 0
-59 95 65 23 0
-59 95 65 53 0
-59 95 23 53 0
-59 65 23 53 0
-60 96 66 24 0
-60 96 66 54 0
-60 96 24 54 0
-60 66 24 54 0
-55 -91 -61 -19 0
-55 -91 -61 -49 0
-55 -91 -19 -49 0
-55 -61 -19 -49 0
-56 -92 -62 -20 0
-56 -92 -62 -50 0
-56 -92 -20 -50 0
-56 -62 -20 -50 0
-57 -93 -63 -21 0
-57 -93 -63 -51 0
-57 -93 -21 -51 0
-57 -63 -21 -51 0
-58 -94 -64 -22 0
-58 -94 -64 -52 0
-58 -94 -22 -52 0
-58 -64 -22 -52 0
-59 -95 -65 -23 0
-59 -95 -65 -53 0
-59 -95 -23 -53 0
-59 -65 -23 -53 0
-60 -96 -66 -24 0
-60 -96 -66 -54 0
-60 -96 -24 -54 0
-60 -66 -24 -54 0
-61 0
-63 0
-64 0
-65 0
-66 0
62 0
98 68 26 56 0
-98 -68 0
-98 -26 0
-98 -56 0
-68 -26 0
-68 -56 0
-26 -56 0
-67 0
-68 0
-70 0
-71 0
-72 0
69 0
105 63 33 0
-105 -63 0
-105 -33 0
-63 -33 0
-73 0
-74 0
-75 0
-76 0
-78 0
77 0
113 83 41 0
-113 -83 0
-113 -41 0
-83 -41 0
249 250 0
-249 -250 0
-79 -80 0
-79 -81 0
-80 -81 0
-82 -83 0
-82 -84 0
-83 -84 0
-249 79 80 81 0
-250 82 83 84 0
249 -79 0
249 -80 0
249 -81 0
250 -82 0
250 -83 0
250 -84 0
-79 115 85 43 0
-79 115 85 73 0
-79 115 43 73 0
-79 85 43 73 0
-80 116 86 44 0
-80 116 86 74 0
-80 116 44 74 0
-80 86 44 74 0
-81 117 87 45 0
-81 117 87 75 0
-81 117 45 75 0
-81 87 45 75 0
-82 118 88 46 0
-82 118 88 76 0
-82 118 46 76 0
-82 88 46 76 0
-83 119 89 47 0
-83 119 89 77 0
-83 119 47 77 0
-83 89 47 77 0
-84 120 90 48 0
-84 120 90 78 0
-84 120 48 78 0
-84 90 48 78 0
-79 -115 -85 -43 0
-79 -115 -85 -73 0
-79 -115 -43 -73 0
-79 -85 -43 -73 0
-80 -116 -86 -44 0
-80 -116 -86 -74 0
-80 -116 -44 -74 0
-80 -86 -44 -74 0
-81 -117 -87 -45 0
-81 -117 -87 -75 0
-81 -117 -45 -75 0
-81 -87 -45 -75 0
-82 -118 -88 -46 0
-82 -118 -88 -76 0
-82 -118 -46 -76 0
-82 -88 -46 -76 0
-83 -119 -89 -47 0
-83 -119 -89 -77 0
-83 -119 -47 -77 0
-83 -89 -47 -77 0
-84 -120 -90 -48 0
-84 -120 -90 -78 0
-84 -120 -48 -78 0
-84 -90 -48 -78 0
251 252 0
-251 -252 0
-85 -86 0
-85 -87 0
-86 -87 0
-88 -89 0
-88 -90 0
-89 -90 0
-251 85 86 87 0
-252 88 89 90 0
251 -85 0
251 -86 0
251 -87 0
252 -88 0
252 -89 0
252 -90 0
-85 121 91 49 0
-85 121 91 79 0
-85 121 49 79 0
-85 91 49 79 0
-86 122 92 50 0
-86 122 92 80 0
-86 122 50 80 0
-86 92 50 80 0
-87 123 93 51 0
-87 123 93 81 0
-87 123 51 81 0
-87 93 51 81 0
-88 124 94 52 0
-88 124 94 82 0
-88 124 52 82 0
-88 94 52 82 0
-89 125 95 53 0
-89 125 95 83 0
-89 125 53 83 0
-89 95 53 83 0
-90 126 96 54 0
-90 126 96 84 0
-90 126 54 84 0
-90 96 54 84 0
-85 -121 -91 -49 0
-85 -121 -91 -79 0
-85 -121 -49 -79 0
-85 -91 -49 -79 0
-86 -122 -92 -50 0
-86 -122 -92 -80 0
-86 -122 -50 -80 0
-86 -92 -50 -80 0
-87 -123 -93 -51 0
-87 -123 -93 -81 0
-87 -123 -51 -81 0
-87 -93 -51 -81 0
-88 -124 -94 -52 0
-88 -124 -94 -82 0
-88 -124 -52 -82 0
-88 -94 -52 -82 0
-89 -125 -95 -53 0
-89 -125 -95 -83 0
-89 -125 -53 -83 0
-89 -95 -53 -83 0
-90 -126 -96 -54 0
-90 -126 -96 -84 0
-90 -126 -54 -84 0
-90 -96 -54 -84 0
253 254 0
-253 -254 0
-91 -92 0
-91 -93 0
-92 -93 0
-94 -95 0
-94 -96 0
-95 -96 0
-253 91 92 93 0
-254 94 95 96 0
253 -91 0
253 -92 0
253 -93 0
254 -94 0
254 -95 0
254 -96 0
-91 127 97 55 0
-91 127 97 85 0
-91 127 55 85 0
-91 97 55 85 0
-92 128 98 56 0
-92 128 98 86 0
-92 128 56 86 0
-92 98 56 86 0
-93 129 99 57 0
-93 129 99 87 0
-93 129 57 87 0
-93 99 57 87 0
-94 130 100 58 0
-94 130 100 88 0
-94 130 58 88 0
-94 100 58 88 0
-95 131 101 59 0
-95 131 101 89 0
-95 131 59 89 0
-95 101 59 89 0
-96 132 102 60 0
-96 132 102 90 0
-96 132 60 90 0
-96 102 60 90 0
-91 -127 -97 -55 0
-91 -127 -97 -85 0
-91 -127 -55 -85 0
-91 -97 -55 -85 0
-92 -128 -98 -56 0
-92 -128 -98 -86 0
-92 -128 -56 -86 0
-92 -98 -56 -86 0
-93 -129 -99 -57 0
-93 -129 -99 -87 0
-93 -129 -57 -87 0
-93 -99 -57 -87 0
-94 -130 -100 -58 0
-94 -130 -100 -88 0
-94 -130 -58 -88 0
-94 -100 -58 -88 0
-95 -131 -101 -59 0
-95 -131 -101 -89 0
-95 -131 -59 -89 0
-95 -101 -59 -89 0
-96 -132 -102 -60 0
-96 -132 -102 -90 0
-96 -132 -60 -90 0
-96 -102 -60 -90 0
255 256 0
-255 -256 0
-97 -98 0
-97 -99 0
-98 -99 0
-100 -101 0
-100 -102 0
-101 -102 0
-255 97 98 99 0
-256 100 101 102 0
255 -97 0
255 -98 0
255 -99 0
256 -100 0
256 -101 0
256 -102 0
-97 133 103 61 0
-97 133 103 91 0
-97 133 61 91 0
-97 103 61 91 0
-98 134 104 62 0
-98 134 104 92 0
-98 134 62 92 0
-98 104 62 92 0
-99 135 105 63 0
-99 135 105 93 0
-99 135 63 93 0
-99 105 63 93 0
-100 136 106 64 0
-100 136 106 94 0
-100 136 64 94 0
-100 106 64 94 0
-101 137 107 65 0
-101 137 107 95 0
-101 137 65 95 0
-101 107 65 95 0
-102 138 108 66 0
-102 138 108 96 0
-102 138 66 96 0
-102 108 66 96 0
-97 -133 -103 -61 0
-97 -133 -103 -91 0
-97 -133 -61 -91 0
-97 -103 -61 -91 0
-98 -134 -104 -62 0
-98 -134 -104 -92 0
-98 -134 -62 -92 0
-98 -104 -62 -92 0
-99 -135 -105 -63 0
-99 -135 -105 -93 0
-99 -135 -63 -93 0
-99 -105 -63 -93 0
-100 -136 -106 -64 0
-100 -136 -106 -94 0
-100 -136 -64 -94 0
-100 -106 -64 -94 0
-101 -137 -107 -65 0
-101 -137 -107 -95 0
-101 -137 -65 -95 0
-101 -107 -65 -95 0
-102 -138 -108 -66 0
-102 -138 -108 -96 0
-102 -138 -66 -96 0
-102 -108 -66 -96 0
-103 0
-104 0
-105 0
-106 0
-107 0
108 0
144 102 72 0
-144 -102 0
-144 -72 0
-102 -72 0
-109 0
-110 0
-111 0
-113 0
-114 0
112 0
148 118 76 0
-148 -118 0
-148 -76 0
-118 -76 0
261 262 0
-261 -262 0
-115 -116 0
-115 -117 0
-116 -117 0
-118 -119 0
-118 -120 0
-119 -120 0
-261 115 116 117 0
-262 118 119 120 0
261 -115 0
261 -116 0
261 -117 0
262 -118 0
262 -119 0
262 -120 0
-115 151 121 79 0
-115 151 121 109 0
-115 151 79 109 0
-115 121 79 109 0
-116 152 122 80 0
-116 152 122 110 0
-116 152 80 110 0
-116 122 80 110 0
-117 153 123 81 0
-117 153 123 111 0
-117 153 81 111 0
-117 123 81 111 0
-118 154 124 82 0
-118 154 124 112 0
-118 154 82 112 0
-118 124 82 112 0
-119 155 125 83 0
-119 155 125 113 0
-119 155 83 113 0
-119 125 83 113 0
-120 156 126 84 0
-120 156 126 114 0
-120 156 84 114 0
-120 126 84 114 0
-115 -151 -121 -79 0
-115 -151 -121 -109 0
-115 -151 -79 -109 0
-115 -121 -79 -109 0
-116 -152 -122 -80 0
-116 -152 -122 -110 0
-116 -152 -80 -110 0
-116 -122 -80 -110 0
-117 -153 -123 -81 0
-117 -153 -123 -111 0
-117 -153 -81 -111 0
-117 -123 -81 -111 0
-118 -154 -124 -82 0
-118 -154 -124 -112 0
-118 -154 -82 -112 0
-118 -124 -82 -112 0
-119 -155 -125 -83 0
-119 -155 -125 -113 0
-119 -155 -83 -113 0
-119 -125 -83 -113 0
-120 -156 -126 -84 0
-120 -156 -126 -114 0
-120 -156 -84 -114 0
-120 -126 -84 -114 0
263 264 0
-263 -264 0
-121 -122 0
-121 -123 0
-122 -123 0
-124 -125 0
-124 -126 0
-125 -126 0
-263 121 122 123 0
-264 124 125 126 0
263 -121 0
263 -122 0
263 -123 0
264 -124 0
264 -125 0
264 -126 0
-121 157 127 85 0
-121 157 127 115 0
-121 157 85 115 0
-121 127 85 115 0
-122 158 128 86 0
-122 158 128 116 0
-122 158 86 116 0
-122 128 86 116 0
-123 159 129 87 0
-123 159 129 117 0
-123 159 87 117 0
-123 129 87 117 0
-124 160 130 88 0
-124 160 130 118 0
-124 160 88 118 0
-124 130 88 118 0
-125 161 131 89 0
-125 161 131 119 0
-125 161 89 119 0
-125 131 89 119 0
-126 162 132 90 0
-126 162 132 120 0
-126 162 90 120 0
-126 132 90 120 0
-121 -157 -127 -85 0
-121 -157 -127 -115 0
-121 -157 -85 -115 0
-121 -127 -85 -115 0
-122 -158 -128 -86 0
-122 -158 -128 -116 0
-122 -158 -86 -116 0
-122 -128 -86 -116 0
-123 -159 -129 -87 0
-123 -159 -129 -117 0
-123 -159 -87 -117 0
-123 -129 -87 -117 0
-124 -160 -130 -88 0
-124 -160 -130 -118 0
-124 -160 -88 -118 0
-124 -130 -88 -118 0
-125 -161 -131 -89 0
-125 -161 -131 -119 0
-125 -161 -89 -119 0
-125 -131 -89 -119 0
-126 -162 -132 -90 0
-126 -162 -132 -120 0
-126 -162 -90 -120 0
-126 -132 -90 -120 0
-127 0
-128 0
-129 0
-130 0
-132 0
131 0
167 137 95 125 0
-167 -137 0
-167 -95 0
-167 -125 0
-137 -95 0
-137 -125 0
-95 -125 0
267 268 0
-267 -268 0
-133 -134 0
-133 -135 0
-134 -135 0
-136 -137 0
-136 -138 0
-137 -138 0
-267 133 134 135 0
-268 136 137 138 0
267 -133 0
267 -134 0
267 -135 0
268 -136 0
268 -137 0
268 -138 0
-133 169 139 97 0
-133 169 139 127 0
-133 169 97 127 0
-133 139 97 127 0
-134 170 140 98 0
-134 170 140 128 0
-134 170 98 128 0
-134 140 98 128 0
-135 171 141 99 0
-135 171 141 129 0
-135 171 99 129 0
-135 141 99 129 0
-136 172 142 100 0
-136 172 142 130 0
-136 172 100 130 0
-136 142 100 130 0
-137 173 143 101 0
-137 173 143 131 0
-137 173 101 131 0
-137 143 101 131 0
-138 174 144 102 0
-138 174 144 132 0
-138 174 102 132 0
-138 144 102 132 0
-133 -169 -139 -97 0
-133 -169 -139 -127 0
-133 -169 -97 -127 0
-133 -139 -97 -127 0
-134 -170 -140 -98 0
-134 -170 -140 -128 0
-134 -170 -98 -128 0
-134 -140 -98 -128 0
-135 -171 -141 -99 0
-135 -171 -141 -129 0
-135 -171 -99 -129 0
-135 -141 -99 -129 0
-136 -172 -142 -100 0
-136 -172 -142 -130 0
-136 -172 -100 -130 0
-136 -142 -100 -130 0
-137 -173 -143 -101 0
-137 -173 -143 -131 0
-137 -173 -101 -131 0
-137 -143 -101 -131 0
-138 -174 -144 -102 0
-138 -174 -144 -132 0
-138 -174 -102 -132 0
-138 -144 -102 -132 0
-140 0
-141 0
-142 0
-143 0
-144 0
139 0
175 133 103 0
-175 -133 0
-175 -103 0
-133 -103 0
271 272 0
-271 -272 0
-145 -146 0
-145 -147 0
-146 -147 0
-148 -149 0
-148 -150 0
-149 -150 0
-271 145 146 147 0
-272 148 149 150 0
271 -145 0
271 -146 0
271 -147 0
272 -148 0
272 -149 0
272 -150 0
-145 181 151 0
-145 181 109 0
-145 151 109 0
-146 182 152 0
-146 182 110 0
-146 152 110 0
-147 183 153 0
-147 183 111 0
-147 153 111 0
-148 184 154 0
-148 184 112 0
-148 154 112 0
-149 185 155 0
-149 185 113 0
-149 155 113 0
-150 186 156 0
-150 186 114 0
-150 156 114 0
-145 -181 -151 -109 0
-146 -182 -152 -110 0
-147 -183 -153 -111 0
-148 -184 -154 -112 0
-149 -185 -155 -113 0
-150 -186 -156 -114 0
-152 0
-153 0
-154 0
-155 0
-156 0
151 0
187 157 115 145 0
-187 -157 0
-187 -115 0
-187 -145 0
-157 -115 0
-157 -145 0
-115 -145 0
275 276 0
-275 -276 0
-157 -158 0
-157 -159 0
-158 -159 0
-160 -161 0
-160 -162 0
-161 -162 0
-275 157 158 159 0
-276 160 161 162 0
275 -157 0
275 -158 0
275 -159 0
276 -160 0
276 -161 0
276 -162 0
-157 193 163 121 0
-157 193 163 151 0
-157 193 121 151 0
-157 163 121 151 0
-158 194 164 122 0
-158 194 164 152 0
-158 194 122 152 0
-158 164 122 152 0
-159 195 165 123 0
-159 195 165 153 0
-159 195 123 153 0
-159 165 123 153 0
-160 196 166 124 0
-160 196 166 154 0
-160 196 124 154 0
-160 166 124 154 0
-161 197 167 125 0
-161 197 167 155 0
-161 197 125 155 0
-161 167 125 155 0
-162 198 168 126 0
-162 198 168 156 0
-162 198 126 156 0
-162 168 126 156 0
-157 -193 -163 -121 0
-157 -193 -163 -151 0
-157 -193 -121 -151 0
-157 -163 -121 -151 0
-158 -194 -164 -122 0
-158 -194 -164 -152 0
-158 -194 -122 -152 0
-158 -164 -122 -152 0
-159 -195 -165 -123 0
-159 -195 -165 -153 0
-159 -195 -123 -153 0
-159 -165 -123 -153 0
-160 -196 -166 -124 0
-160 -196 -166 -154 0
-160 -196 -124 -154 0
-160 -166 -124 -154 0
-161 -197 -167 -125 0
-161 -197 -167 -155 0
-161 -197 -125 -155 0
-161 -167 -125 -155 0
-162 -198 -168 -126 0
-162 -198 -168 -156 0
-162 -198 -126 -156 0
-162 -168 -126 -156 0
277 278 0
-277 -278 0
-163 -164 0
-163 -165 0
-164 -165 0
-166 -167 0
-166 -168 0
-167 -168 0
-277 163 164 165 0
-278 166 167 168 0
277 -163 0
277 -164 0
277 -165 0
278 -166 0
278 -167 0
278 -168 0
-163 199 169 127 0
-163 199 169 157 0
-163 199 127 157 0
-163 169 127 157 0
-164 200 170 128 0
-164 200 170 158 0
-164 200 128 158 0
-164 170 128 158 0
-165 201 171 129 0
-165 201 171 159 0
-165 201 129 159 0
-165 171 129 159 0
-166 202 172 130 0
-166 202 172 160 0
-166 202 130 160 0
-166 172 130 160 0
-167 203 173 131 0
-167 203 173 161 0
-167 203 131 161 0
-167 173 131 161 0
-168 204 174 132 0
-168 204 174 162 0
-168 204 132 162 0
-168 174 132 162 0
-163 -199 -169 -127 0
-163 -199 -169 -157 0
-163 -199 -127 -157 0
-163 -169 -127 -157 0
-164 -200 -170 -128 0
-164 -200 -170 -158 0
-164 -200 -128 -158 0
-164 -170 -128 -158 0
-165 -201 -171 -129 0
-165 -201 -171 -159 0
-165 -201 -129 -159 0
-165 -171 -129 -159 0
-166 -202 -172 -130 0
-166 -202 -172 -160 0
-166 -202 -130 -160 0
-166 -172 -130 -160 0
-167 -203 -173 -131 0
-167 -203 -173 -161 0
-167 -203 -131 -161 0
-167 -173 -131 -161 0
-168 -204 -174 -132 0
-168 -204 -174 -162 0
-168 -204 -132 -162 0
-168 -174 -132 -162 0
279 280 0
-279 -280 0
-169 -170 0
-169 -171 0
-170 -171 0
-172 -173 0
-172 -174 0
-173 -174 0
-279 169 170 171 0
-280 172 173 174 0
279 -169 0
279 -170 0
279 -171 0
280 -172 0
280 -173 0
280 -174 0
-169 205 175 133 0
-169 205 175 163 0
-169 205 133 163 0
-169 175 133 163 0
-170 206 176 134 0
-170 206 176 164 0
-170 206 134 164 0
-170 176 134 164 0
-171 207 177 135 0
-171 207 177 165 0
-171 207 135 165 0
-171 177 135 165 0
-172 208 178 136 0
-172 208 178 166 0
-172 208 136 166 0
-172 178 136 166 0
-173 209 179 137 0
-173 209 179 167 0
-173 209 137 167 0
-173 179 137 167 0
-174 210 180 138 0
-174 210 180 168 0
-174 210 138 168 0
-174 180 138 168 0
-169 -205 -175 -133 0
-169 -205 -175 -163 0
-169 -205 -133 -163 0
-169 -175 -133 -163 0
-170 -206 -176 -134 0
-170 -206 -176 -164 0
-170 -206 -134 -164 0
-170 -176 -134 -164 0
-171 -207 -177 -135 0
-171 -207 -177 -165 0
-171 -207 -135 -165 0
-171 -177 -135 -165 0
-172 -208 -178 -136 0
-172 -208 -178 -166 0
-172 -208 -136 -166 0
-172 -178 -136 -166 0
-173 -209 -179 -137 0
-173 -209 -179 -167 0
-173 -209 -137 -167 0
-173 -179 -137 -167 0
-174 -210 -180 -138 0
-174 -210 -180 -168 0
-174 -210 -138 -168 0
-174 -180 -138 -168 0
-175 0
-176 0
-177 0
-179 0
-180 0
178 0
214 172 142 0
-214 -172 0
-214 -142 0
-172 -142 0
283 284 0
-283 -284 0
-181 -182 0
-181 -183 0
-182 -183 0
-184 -185 0
-184 -186 0
-185 -186 0
-283 181 182 183 0
-284 184 185 186 0
283 -181 0
283 -182 0
283 -183 0
284 -184 0
284 -185 0
284 -186 0
-181 145 0
-181 187 0
-182 146 0
-182 188 0
-183 147 0
-183 189 0
-184 148 0
-184 190 0
-185 149 0
-185 191 0
-186 150 0
-186 192 0
285 286 0
-285 -286 0
-187 -188 0
-187 -189 0
-188 -189 0
-190 -191 0
-190 -192 0
-191 -192 0
-285 187 188 189 0
-286 190 191 192 0
285 -187 0
285 -188 0
285 -189 0
286 -190 0
286 -191 0
286 -192 0
-187 151 193 0
-187 151 181 0
-187 193 181 0
-188 152 194 0
-188 152 182 0
-188 194 182 0
-189 153 195 0
-189 153 183 0
-189 195 183 0
-190 154 196 0
-190 154 184 0
-190 196 184 0
-191 155 197 0
-191 155 185 0
-191 197 185 0
-192 156 198 0
-192 156 186 0
-192 198 186 0
-187 -151 -193 -181 0
-188 -152 -194 -182 0
-189 -153 -195 -183 0
-190 -154 -196 -184 0
-191 -155 -197 -185 0
-192 -156 -198 -186 0
287 288 0
-287 -288 0
-193 -194 0
-193 -195 0
-194 -195 0
-196 -197 0
-196 -198 0
-197 -198 0
-287 193 194 195 0
-288 196 197 198 0
287 -193 0
287 -194 0
287 -195 0
288 -196 0
288 -197 0
288 -198 0
-193 157 199 0
-193 157 187 0
-193 199 187 0
-194 158 200 0
-194 158 188 0
-194 200 188 0
-195 159 201 0
-195 159 189 0
-195 201 189 0
-196 160 202 0
-196 160 190 0
-196 202 190 0
-197 161 203 0
-197 161 191 0
-197 203 191 0
-198 162 204 0
-198 162 192 0
-198 204 192 0
-193 -157 -199 -187 0
-194 -158 -200 -188 0
-195 -159 -201 -189 0
-196 -160 -202 -190 0
-197 -161 -203 -191 0
-198 -162 -204 -192 0
289 290 0
-289 -290 0
-199 -200 0
-199 -201 0
-200 -201 0
-202 -203 0
-202 -204 0
-203 -204 0
-289 199 200 201 0
-290 202 203 204 0
289 -199 0
289 -200 0
289 -201 0
290 -202 0
290 -203 0
290 -204 0
-199 163 205 0
-199 163 193 0
-199 205 193 0
-200 164 206 0
-200 164 194 0
-200 206 194 0
-201 165 207 0
-201 165 195 0
-201 207 195 0
-202 166 208 0
-202 166 196 0
-202 208 196 0
-203 167 209 0
-203 167 197 0
-203 209 197 0
-204 168 210 0
-204 168 198 0
-204 210 198 0
-199 -163 -205 -193 0
-200 -164 -206 -194 0
-201 -165 -207 -195 0
-202 -166 -208 -196 0
-203 -167 -209 -197 0
-204 -168 -210 -198 0
291 292 0
-291 -292 0
-205 -206 0
-205 -207 0
-206 -207 0
-208 -209 0
-208 -210 0
-209 -210 0
-291 205 206 207 0
-292 208 209 210 0
291 -205 0
291 -206 0
291 -207 0
292 -208 0
292 -209 0
292 -210 0
-205 169 211 0
-205 169 199 0
-205 211 199 0
-206 170 212 0
-206 170 200 0
-206 212 200 0
-207 171 213 0
-207 171 201 0
-207 213 201 0
-208 172 214 0
-208 172 202 0
-208 214 202 0
-209 173 215 0
-209 173 203 0
-209 215 203 0
-210 174 216 0
-210 174 204 0
-210 216 204 0
-205 -169 -211 -199 0
-206 -170 -212 -200 0
-207 -171 -213 -201 0
-208 -172 -214 -202 0
-209 -173 -215 -203 0
-210 -174 -216 -204 0
293 294 0
-293 -294 0
-211 -212 0
-211 -213 0
-212 -213 0
-214 -215 0
-214 -216 0
-215 -216 0
-293 211 212 213 0
-294 214 215 216 0
293 -211 0
293 -212 0
293 -213 0
294 -214 0
294 -215 0
294 -216 0
-211 175 0
-211 205 0
-212 176 0
-212 206 0
-213 177 0
-213 207 0
-214 178 0
-214 208 0
-215 179 0
-215 209 0
-216 180 0
-216 210 0
13 49 85 121 157 193 0
19 55 91 163 199 0
97 133 169 205 0
8 80 116 188 0
14 50 86 122 158 194 0
20 56 92 164 200 0
10 82 118 190 0
16 52 88 124 160 196 0
22 58 94 166 202 0
100 136 172 208 0
11 83 119 191 0
17 53 89 125 161 197 0
18 54 90 126 162 198 0
24 60 96 168 204 0
102 138 174 210 0